Maximize
  - 9 x0 - 35 x1 + 0 x2 + 0 x3 + 0 x4 + 0 x5 + 0 x6 + 0 x7 - 35 x8 - 19 x9
   - 8 x10 + 0 x11 + 0 x12 + 52 x13 + 45 x14 + 0 x15 + 0 x16 + 0 x17
   + 47 x18 + 38 x19 - 52 x20 + 17 x21 + 35 x22 + 0 x23 + 37 x24 + 0 x25
   + 13 x26 + 12 x27 + 0 x28 - 50 x29 + [ - 43 x0 ^2 + 10 x0 * x1
   - 44 x0 * x2 + 40 x0 * x4 + 24 x0 * x6 - 28 x0 * x8 + 44 x0 * x9
   - 34 x0 * x10 - 68 x0 * x11 - 78 x0 * x13 - 4 x0 * x14 + 90 x0 * x16
   + 108 x0 * x17 + 52 x0 * x18 - 32 x0 * x19 + 56 x0 * x22 - 66 x0 * x28
   - 104 x0 * x29 - 100 x1 * x2 + 4 x1 * x4 + 52 x1 * x6 - 82 x1 * x8
   + 16 x1 * x9 + 44 x1 * x11 + 2 x1 * x13 - 72 x1 * x15 - 10 x1 * x19
   + 4 x1 * x20 + 6 x1 * x22 - 76 x1 * x23 - 72 x1 * x25 - 36 x1 * x26
   - 82 x1 * x28 + 34 x1 * x29 - 2 x2 * x3 - 74 x2 * x4 + 72 x2 * x5
   - 32 x2 * x6 + 58 x2 * x7 - 54 x2 * x13 + 92 x2 * x15 - 70 x2 * x16
   - 16 x2 * x17 - 84 x2 * x18 - 84 x2 * x20 + 44 x2 * x21 + 98 x2 * x23
   + 52 x2 * x24 + 52 x2 * x26 - 64 x2 * x27 - 30 x2 * x28 - 22 x3 * x4
   - 48 x3 * x5 + 60 x3 * x7 - 74 x3 * x8 - 76 x3 * x9 + 104 x3 * x12
   - 18 x3 * x17 - 56 x3 * x18 - 26 x3 * x20 - 16 x3 * x21 - 14 x3 * x23
   - 104 x3 * x26 - 30 x3 * x28 + 20 x3 * x29 - 86 x4 * x6 - 78 x4 * x10
   - 68 x4 * x11 - 104 x4 * x13 - 32 x4 * x14 + 34 x4 * x16 - 54 x4 * x17
   - 44 x4 * x18 + 36 x4 * x20 - 18 x4 * x21 - 20 x4 * x23 + 54 x4 * x24
   - 12 x4 * x26 + 20 x4 * x28 + 12 x5 * x6 + 94 x5 * x9 - 6 x5 * x10
   - 62 x5 * x12 - 46 x5 * x15 + 56 x5 * x16 + 12 x5 * x17 + 30 x5 * x18
   - 4 x5 * x19 + 98 x5 * x20 - 46 x5 * x21 + 24 x5 * x22 - 56 x5 * x23
   + 52 x5 * x25 + 6 x5 * x27 + 86 x5 * x28 + 54 x6 * x11 + 12 x6 * x12
   - 24 x6 * x14 + 10 x6 * x19 + 74 x6 * x20 - 40 x6 * x21 + 46 x6 * x23
   + 108 x6 * x24 - 20 x6 * x27 + 102 x7 * x8 + 28 x7 * x9 - 54 x7 * x13
   - 34 x7 * x15 + 54 x7 * x16 + 80 x7 * x18 - 12 x7 * x20 + 26 x7 * x23
   - 80 x7 * x24 + 12 x7 * x26 + 18 x7 * x29 + 54 x8 ^2 - 32 x8 * x9
   - 24 x8 * x10 + 36 x8 * x12 - 16 x8 * x13 + 30 x8 * x14 + 96 x8 * x15
   - 48 x8 * x16 - 60 x8 * x18 - 64 x8 * x20 + 66 x8 * x21 - 78 x8 * x27
   + 100 x8 * x28 + 102 x8 * x29 - 6 x9 ^2 - 50 x9 * x11 + 22 x9 * x12
   - 66 x9 * x15 + 24 x9 * x19 - 50 x9 * x20 + 12 x9 * x21 - 6 x9 * x22
   - 42 x9 * x23 + 6 x9 * x27 + 26 x9 * x28 - 50 x10 * x11 + 90 x10 * x16
   - 16 x10 * x20 + 66 x10 * x21 - 16 x10 * x23 - 56 x10 * x27
   + 44 x10 * x28 + 26 x11 ^2 + 12 x11 * x12 + 60 x11 * x13 - 72 x11 * x18
   + 42 x11 * x19 - 106 x11 * x22 + 14 x11 * x23 - 30 x11 * x24
   + 108 x11 * x25 + 90 x11 * x28 + 80 x12 * x13 + 12 x12 * x15
   - 100 x12 * x16 + 104 x12 * x17 + 60 x12 * x18 - 66 x12 * x19
   - 92 x12 * x20 + 28 x12 * x21 - 4 x12 * x22 + 70 x12 * x23
   + 84 x12 * x28 + 78 x12 * x29 - 26 x13 ^2 - 60 x13 * x14 - 24 x13 * x16
   - 26 x13 * x18 - 84 x13 * x19 - 56 x13 * x20 - 40 x13 * x21
   + 36 x13 * x23 - 44 x14 ^2 - 34 x14 * x15 - 26 x14 * x16 + 62 x14 * x18
   + 96 x14 * x20 + 104 x14 * x21 - 26 x14 * x22 - 88 x14 * x24
   - 72 x14 * x25 + 76 x14 * x28 + 68 x14 * x29 + 6 x15 ^2 + 52 x15 * x17
   - 102 x15 * x19 + 68 x15 * x21 + 58 x15 * x24 + 76 x15 * x25
   - 102 x15 * x26 - 50 x15 * x27 + 44 x15 * x28 + 46 x16 ^2 + 74 x16 * x18
   - 18 x16 * x19 + 30 x16 * x25 + 86 x16 * x26 - 68 x17 * x20
   + 106 x17 * x22 - 108 x17 * x23 + 100 x17 * x29 - 78 x18 * x19
   + 60 x18 * x20 - 24 x18 * x25 + 18 x18 * x26 - 15 x19 ^2 + 24 x19 * x22
   - 8 x19 * x24 - 100 x19 * x25 + 10 x19 * x26 + 32 x19 * x27
   - 94 x19 * x28 - 44 x20 ^2 + 22 x20 * x21 - 6 x20 * x22 + 100 x20 * x24
   + 56 x20 * x25 - 56 x20 * x27 - 88 x20 * x28 + 30 x20 * x29
   + 86 x21 * x22 - 62 x21 * x23 - 42 x21 * x24 + 64 x21 * x28
   + 102 x21 * x29 + 32 x22 * x23 + 24 x22 * x24 - 54 x22 * x26
   + 42 x22 * x27 + 14 x22 * x29 + 9 x23 ^2 - 40 x23 * x25 + 66 x23 * x26
   + 62 x23 * x27 + 50 x23 * x28 + 10 x24 ^2 + 6 x24 * x26 + 80 x24 * x28
   - 56 x24 * x29 + 100 x25 * x26 - 18 x25 * x27 - 18 x25 * x28
   + 22 x25 * x29 - 37 x26 ^2 - 86 x26 * x27 + 70 x26 * x28 + 4 x26 * x29
   + 15 x28 ^2 + 106 x28 * x29 - 35 x29 ^2 ] / 2 
Subject To
Bounds
 x0 <= 1
 x1 <= 1
 x2 <= 1
 x3 <= 1
 x4 <= 1
 x5 <= 1
 x6 <= 1
 x7 <= 1
 x8 <= 1
 x9 <= 1
 x10 <= 1
 x11 <= 1
 x12 <= 1
 x13 <= 1
 x14 <= 1
 x15 <= 1
 x16 <= 1
 x17 <= 1
 x18 <= 1
 x19 <= 1
 x20 <= 1
 x21 <= 1
 x22 <= 1
 x23 <= 1
 x24 <= 1
 x25 <= 1
 x26 <= 1
 x27 <= 1
 x28 <= 1
 x29 <= 1
End
